n = 38;
lu = [|-585, -381
      |-1338, 134
      |-646, -541
      |176, 860
      |-1423, 1201
      |-401, 1327
      |-714, 14
      |-1333, -240
      |-1143, 1319
      |-1409, 56
      |-1002, 292
      |-20, 285
      |-1047, 160
      |658, 933
      |-351, -217
      |-1172, 440
      |-390, 320
      |-131, 922
      |-1442, 871
      |-1258, 1225
      |-674, 1094
      |526, 1095
      |1090, 1151
      |-161, 116
      |-287, 143
      |-7, 1229
      |-888, 517
      |324, 729
      |-1155, -738
      |-225, 1336
      |-480, -263
      |1389, 1416
      |-1038, 183
      |491, 657
      |-1083, 265
      |-1377, -1306
      |269, 1282
      |-1427, 1036|];
